CMD:
./solvers/bin/cadical --plain --no-reduce -t 1600 ./data/cnfs//pdtvistimeout0/pdtvistimeout0.69.cnf

c --- [ banner ] -------------------------------------------------------------
c 
c CaDiCaL SAT Solver
c Copyright (c) 2016-2024
c A. Biere, M. Fleury, N. Froleyks, K. Fazekas, F. Pollitt, T. Faller
c JKU Linz, University of Freiburg, TU Wien
c 
c Version 2.1.3 5296d3d2a9bf48c154ab2acb5e44625776d821bf
c g++ (Gentoo 12.3.1_p20230526 p2) 12.3.1 20230526 -Wall -Wextra -O3 -DNDEBUG
c Sat Aug 9 07:26:21 PDT 2025 Linux cedar2.int.cedar.computecanada.ca 5.14.0-362.24.2.el9_3.x86_64 x86_64
c 
c --- [ limit ] --------------------------------------------------------------
c 
c setting time limit to 1600 seconds real time (due to '-t 1600')
c 
c --- [ parsing input ] ------------------------------------------------------
c 
c reading DIMACS file from './data/cnfs//pdtvistimeout0/pdtvistimeout0.69.cnf'
c opening file to read './data/cnfs//pdtvistimeout0/pdtvistimeout0.69.cnf'
c found 'p cnf 82074 243844' header
c parsed 243844 clauses in 0.04 seconds process time
c 
c --- [ options ] ------------------------------------------------------------
c 
c   --compact=false                (different from default 'true')
c   --decompose=false              (different from default 'true')
c   --deduplicate=false            (different from default 'true')
c   --elim=false                   (different from default 'true')
c   --probe=false                  (different from default 'true')
c   --reduce=false                 (different from default 'true')
c   --subsume=false                (different from default 'true')
c   --ternary=false                (different from default 'true')
c   --transred=false               (different from default 'true')
c   --vivify=false                 (different from default 'true')
c 
c --- [ solving ] ------------------------------------------------------------
c 
c time measured in process time since initialization
c 
c  seconds  reductions  redundant  irredundant
c         MB    restarts       trail       variables
c          level   conflicts       glue         remaining
c 
c *  0.04 41  0 0   0    0    0  0% 0 241412 80099 98%
c {  0.04 41  0 0   0    0    0  0% 0 241412 80099 98%
c i  0.04 41  8 0   0    2    1  3% 0 241412 80091 98%
c i  0.04 41  8 0   0    5    3  3% 1 241412 80090 98%
c }  0.10 43 261 0  65 1000  931 33% 3 241412 80090 98%
c [  0.10 43  0 0  65 1000  931  0% 0 241412 80090 98%
c O  0.10 43 27 0  65 1002  933  7% 1 241412 80090 98%
c i  0.12 43 443 0  65 1172 1097 61% 2 241412 80067 98%
c i  0.18 43 611 0  66 2088 1910 85% 6 241412 80066 98%
c i  0.19 43 587 0  66 2142 1954 81% 6 241412 80057 98%
c i  0.20 43 611 0  66 2220 2024 81% 6 241412 80040 98%
c i  0.20 43 634 0  66 2310 2108 81% 6 241412 80034 98%
c i  0.21 43 646 0  66 2368 2160 81% 6 241412 80028 98%
c i  0.23 43 639 0  66 2660 2425 76% 7 241412 80025 98%
c i  0.23 43 626 0  66 2729 2488 74% 7 241412 80024 98%
c i  0.24 43 610 0  66 2813 2565 71% 8 241412 80023 98%
c i  0.24 43 583 0  66 2959 2699 68% 8 241412 80022 97%
c ]  0.25 43 576 0  66 3001 2735 67% 8 241412 80022 97%
c {  0.25 43 261 0  66 3001 2735 33% 3 241412 80022 97%
c F  0.25 43 261 0  66 3003 2737 33% 3 241412 80022 97%
c 
c  seconds   reductions  redundant  irredundant
c         MB     restarts       trail       variables
c           level   conflicts       glue         remaining
c 
c i  0.29 43 245 0  76 3381 3102 38% 2 241412 79959 97%
c i  0.29 44 228 0 103 3493 3210 35% 3 241412 79896 97%
c i  0.29 44 226 0 105 3506 3220 35% 3 241412 79894 97%
c i  0.29 44 225 0 105 3514 3227 35% 3 241412 79883 97%
c i  0.29 44 224 0 105 3517 3229 35% 3 241412 79881 97%
c i  0.30 44 219 0 105 3557 3263 34% 3 241412 79880 97%
c i  0.30 44 218 0 105 3572 3274 34% 3 241412 79879 97%
c i  0.30 44 217 0 106 3578 3279 34% 3 241412 79878 97%
c i  0.30 44 214 0 110 3603 3298 34% 3 241412 79877 97%
c i  0.30 44 214 0 110 3604 3298 33% 3 241412 79876 97%
c i  0.30 44 214 0 110 3605 3298 33% 3 241412 79875 97%
c i  0.30 44 206 0 127 3671 3353 32% 3 241412 79874 97%
c i  0.31 44 191 0 161 3820 3477 30% 3 241412 79872 97%
c i  0.31 44 189 0 169 3851 3504 30% 3 241412 79809 97%
c i  0.32 44 175 0 209 4004 3643 28% 3 241412 79808 97%
c i  0.33 44 164 0 253 4176 3798 26% 3 241412 79745 97%
c i  0.34 44 159 0 263 4306 3920 26% 3 241412 79744 97%
c i  0.35 44 158 0 267 4369 3981 26% 3 241412 79743 97%
c i  0.35 44 155 0 267 4428 4034 25% 3 241412 79741 97%
c i  0.36 44 146 0 287 4645 4233 24% 3 241412 79740 97%
c 
c  seconds   reductions  redundant  irredundant
c         MB     restarts       trail       variables
c           level   conflicts       glue         remaining
c 
c i  0.36 44 145 0 287 4781 4356 24% 3 241412 79739 97%
c i  0.36 44 145 0 287 4790 4364 24% 3 241412 79738 97%
c i  0.37 44 142 0 294 4887 4452 24% 3 241412 79737 97%
c i  0.37 44 142 0 294 4892 4456 24% 3 241412 79736 97%
... skipped 627 lines ...
c W 715.85 306 55 0 46421 990085 910464 55% 24 218277 75075 91%
c ] 740.99 318 58 0 46434 1023011 941120 57% 23 218277 75075 91%
c { 740.99 318 52 0 46434 1023011 941120 46% 9 218277 75075 91%
c # 767.32 364 53 0 47615 1035087 952335 47% 9 218277 75075 91%
c i 830.56 389 51 0 51057 1058828 974247 47% 10 218277 75074 91%
c i 843.85 392 51 0 51776 1063579 978688 47% 10 218277 75073 91%
c B 887.18 400 50 0 53785 1081088 995172 48% 10 218277 75073 91%
c i 915.83 404 50 0 55255 1091895 1005338 48% 10 218277 75072 91%
c i 936.90 408 51 0 56193 1101856 1014742 48% 10 218277 75064 91%
c i 944.12 409 50 0 56487 1106101 1018691 48% 10 218277 75063 91%
c i 944.14 409 50 0 56487 1106174 1018762 48% 10 218277 75062 91%
c i 956.45 411 50 0 57124 1112104 1024275 48% 10 218277 75061 91%
c W 995.29 467 50 0 58949 1128089 1039373 49% 10 218222 75061 91%
c i 1108.36 474 50 0 63935 1174836 1083479 50% 11 218222 75060 91%
c 
c   seconds    reductions         redundant    irredundant
c            MB     restarts              trail        variables
c             level       conflicts           glue          remaining
c 
c F 1111.31 474 50 0 64058 1176091 1084654 50% 11 218222 75060 91%
c i 1139.94 475 50 0 65373 1190366 1098080 50% 11 218222 75059 91%
c i 1142.12 475 50 0 65454 1191989 1099611 50% 11 218222 75058 91%
c i 1142.26 475 50 0 65455 1192041 1099657 50% 11 218222 75057 91%
c i 1144.57 475 50 0 65534 1193789 1101326 50% 11 218222 75056 91%
c i 1162.32 477 52 0 66307 1204880 1111861 51% 11 218222 75055 91%
c B 1205.46 479 52 0 68116 1225092 1130887 52% 11 218222 75055 91%
c i 1235.33 480 51 0 69467 1237391 1142399 52% 11 218222 75054 91%
c i 1249.92 481 52 0 70019 1244130 1148755 52% 11 218222 75053 91%
c W 1323.38 511 50 0 73075 1275095 1177814 52% 11 218198 75053 91%
c i 1351.15 514 50 0 74310 1287171 1189134 52% 11 218198 75052 91%
c i 1374.92 515 48 0 75305 1297927 1199079 51% 11 218198 75051 91%
c i 1420.16 515 48 0 76955 1318616 1218594 51% 11 218198 75050 91%
c i 1435.66 515 48 0 77655 1323337 1223027 51% 11 218198 75049 91%
c # 1442.23 515 48 0 77931 1326097 1225656 51% 11 218198 75049 91%
c i 1444.12 515 48 0 78014 1326825 1226349 51% 11 218198 75019 91%
c i 1459.20 515 48 0 78589 1333597 1232788 51% 11 218198 74995 91%
c i 1513.52 518 48 0 80637 1354731 1252708 51% 11 218198 74994 91%
c i 1533.99 518 48 0 81336 1363821 1261230 51% 11 218198 74993 91%
c B 1567.95 518 47 0 82698 1378101 1274279 51% 11 218198 74993 91%
c 
c   seconds    reductions         redundant    irredundant
c            MB     restarts              trail        variables
c             level       conflicts           glue          remaining
c 
c } 1590.74 518 47 0 83602 1385616 1281446 52% 11 218198 74993 91%
c ? 1590.74 518 47 0 83602 1385616 1281446 52% 11 218198 74993 91%
c 
c --- [ result ] -------------------------------------------------------------
c 
c UNKNOWN
c 
c --- [ run-time profiling ] -------------------------------------------------
c 
c process time taken by individual solving procedures
c (percentage relative to process time for solving)
c 
c      1590.70  100.00% search
c      1215.81   76.43% unstable
c       370.93   23.32% stable
c         3.96    0.25% walk
c         0.04    0.00% parse
c         0.00    0.00% lucky
c         0.00    0.00% simplify
c   =================================
c      1590.70  100.00% solve
c 
c last line shows process time for solving
c (percentage relative to total process time)
c 
c --- [ statistics ] ---------------------------------------------------------
c 
c chronological:            284416        20.53 %  of conflicts
c conflicts:               1385616       871.07    per second
c decisions:               5277819      3317.93    per second
c fixed:                      7081         8.63 %  of all variables
c learned:                 1356713        97.91 %  per conflict
c learned_lits:          125939978       100.00 %  learned literals
c minimized:                     0         0.00 %  learned literals
c shrunken:               30375957        24.12 %  learned literals
c minishrunken:           37910374        30.10 %  learned literals
c otfs:                       3629         0.26 %  of conflict
c propagations:         5469903193         3.44 M  per second
c rephased:                     52     26646.46    interval
c restarts:                  83602        16.57    interval
c stabilizing:                   5        49.21 %  of conflicts
c subsumed:                  72583         4.54 %  of all clauses
c strengthened:               3507         0.22 %  of all clauses
c walked:                       16     86601.00    interval
c 
c seconds are measured in process time for solving
c 
c --- [ resources ] ----------------------------------------------------------
c 
c total process time since initialization:      1590.74    seconds
c total real time since initialization:         1600.01    seconds
c maximum resident set size of process:          713.04    MB
c 
c --- [ shutting down ] ------------------------------------------------------
c 
c exit 0
